c Generated map
c Size: 8 * 8, weights in range: 1 to 10, walls: False, with ratio 0.0
c dim 7 of 8
c
p sp 64 112
c graph contains 64 nodes and 112 arcs
c
a 1 9 9
a 9 1 9
a 1 2 4
a 2 1 4
a 2 10 1
a 10 2 1
a 2 3 6
a 3 2 6
a 3 11 8
a 11 3 8
a 3 4 9
a 4 3 9
a 4 12 1
a 12 4 1
a 4 5 9
a 5 4 9
a 5 13 7
a 13 5 7
a 5 6 8
a 6 5 8
a 6 14 2
a 14 6 2
a 6 7 8
a 7 6 8
a 7 15 4
a 15 7 4
a 7 8 4
a 8 7 4
a 8 16 3
a 16 8 3
a 9 17 6
a 17 9 6
a 9 10 9
a 10 9 9
a 10 18 5
a 18 10 5
a 10 11 1
a 11 10 1
a 11 19 5
a 19 11 5
a 11 12 5
a 12 11 5
a 12 20 9
a 20 12 9
a 12 13 6
a 13 12 6
a 13 21 7
a 21 13 7
a 13 14 2
a 14 13 2
a 14 22 3
a 22 14 3
a 14 15 5
a 15 14 5
a 15 23 9
a 23 15 9
a 15 16 5
a 16 15 5
a 16 24 6
a 24 16 6
a 17 25 4
a 25 17 4
a 17 18 4
a 18 17 4
a 18 26 5
a 26 18 5
a 18 19 7
a 19 18 7
a 19 27 3
a 27 19 3
a 19 20 5
a 20 19 5
a 20 28 7
a 28 20 7
a 20 21 1
a 21 20 1
a 21 29 7
a 29 21 7
a 21 22 1
a 22 21 1
a 22 30 5
a 30 22 5
a 22 23 9
a 23 22 9
a 23 31 5
a 31 23 5
a 23 24 5
a 24 23 5
a 24 32 4
a 32 24 4
a 25 33 6
a 33 25 6
a 25 26 2
a 26 25 2
a 26 34 7
a 34 26 7
a 26 27 6
a 27 26 6
a 27 35 3
a 35 27 3
a 27 28 3
a 28 27 3
a 28 36 10
a 36 28 10
a 28 29 1
a 29 28 1
a 29 37 3
a 37 29 3
a 29 30 9
a 30 29 9
a 30 38 6
a 38 30 6
a 30 31 9
a 31 30 9
a 31 39 6
a 39 31 6
a 31 32 2
a 32 31 2
a 32 40 4
a 40 32 4
a 33 41 1
a 41 33 1
a 33 34 8
a 34 33 8
a 34 42 4
a 42 34 4
a 34 35 8
a 35 34 8
a 35 43 2
a 43 35 2
a 35 36 4
a 36 35 4
a 36 44 2
a 44 36 2
a 36 37 10
a 37 36 10
a 37 45 1
a 45 37 1
a 37 38 10
a 38 37 10
a 38 46 3
a 46 38 3
a 38 39 4
a 39 38 4
a 39 47 4
a 47 39 4
a 39 40 5
a 40 39 5
a 40 48 9
a 48 40 9
a 41 49 4
a 49 41 4
a 41 42 9
a 42 41 9
a 42 50 3
a 50 42 3
a 42 43 10
a 43 42 10
a 43 51 3
a 51 43 3
a 43 44 10
a 44 43 10
a 44 52 6
a 52 44 6
a 44 45 2
a 45 44 2
a 45 53 8
a 53 45 8
a 45 46 3
a 46 45 3
a 46 54 1
a 54 46 1
a 46 47 10
a 47 46 10
a 47 55 1
a 55 47 1
a 47 48 1
a 48 47 1
a 48 56 3
a 56 48 3
a 49 57 6
a 57 49 6
a 49 50 4
a 50 49 4
a 50 58 7
a 58 50 7
a 50 51 10
a 51 50 10
a 51 59 10
a 59 51 10
a 51 52 2
a 52 51 2
a 52 60 10
a 60 52 10
a 52 53 2
a 53 52 2
a 53 61 5
a 61 53 5
a 53 54 6
a 54 53 6
a 54 62 1
a 62 54 1
a 54 55 9
a 55 54 9
a 55 63 9
a 63 55 9
a 55 56 4
a 56 55 4
a 56 64 6
a 64 56 6
a 57 58 1
a 58 57 1
a 58 59 10
a 59 58 10
a 59 60 2
a 60 59 2
a 60 61 6
a 61 60 6
a 61 62 4
a 62 61 4
a 62 63 8
a 63 62 8
a 63 64 4
a 64 63 4
